VER
4

OBJSENSE
MIN

QCECONES
1 2
2
2 2 2
0

VAR
37 1
@0:SVECQCE 37

CON
12 1
L= 12

OBJACOORD
10
1 1.0
3 1.0
6 -1.0
10 -1.0
13 -2.8284271247461903
15 -1.0
19 -2.8284271247461903
21 -1.0
28 1.0
36 1.0

ACOORD
45
0 3 -1.0
0 15 1.0
1 2 1.0
1 4 -1.0
1 8 -1.0
1 20 1.0
2 3 1.0
2 6 -1.0
2 10 -1.0
2 21 1.0
3 4 1.0
3 11 -1.0
3 17 -1.0
3 26 1.0
4 5 1.0
4 13 -1.0
4 19 -1.0
4 27 1.0
5 6 1.0
5 15 -1.0
5 21 -1.0
5 28 1.0
6 7 1.0
6 22 -1.0
6 30 -1.0
6 33 1.0
7 8 1.0
7 24 -1.0
7 32 -1.0
7 34 1.0
8 9 1.0
8 26 -1.0
8 34 -1.0
8 35 1.0
9 10 1.0
9 28 -1.0
10 1 1.0
10 3 1.0
10 6 1.0
10 10 1.0
10 15 1.0
10 21 1.0
10 28 1.0
10 36 1.0
11 0 1.0

BCOORD
1
10 1.0
